unknown
(model
; cardinality of BoundSet is 1
(declare-sort BoundSet 0)
; rep: @uc_BoundSet_0
; cardinality of UnboundSet is 1
(declare-sort UnboundSet 0)
(declare-fun groundTerm_2 () UnboundSet)
(define-fun IsRedheaded ((BOUND_VARIABLE_497 BoundSet)) Bool true)
(define-fun IsInterestedInWater ((BOUND_VARIABLE_497 BoundSet)) Bool true)
(define-fun IsInterestedInPeople ((BOUND_VARIABLE_497 BoundSet)) Bool true)
(define-fun IsInDistance ((BOUND_VARIABLE_497 BoundSet)) Bool true)
(define-fun IsAtWater ((BOUND_VARIABLE_497 BoundSet)) Bool true)
(define-fun IsSitting ((BOUND_VARIABLE_497 BoundSet)) Bool false)
(define-fun IsLookingThroughRailing ((BOUND_VARIABLE_497 BoundSet)) Bool false)
(define-fun IsPeoplePlayingOnBeach ((BOUND_VARIABLE_497 BoundSet)) Bool false)
)
sat
(model
; cardinality of BoundSet is 1
(declare-sort BoundSet 0)
; rep: @uc_BoundSet_0
; cardinality of UnboundSet is 1
(declare-sort UnboundSet 0)
(declare-fun groundTerm_5 () UnboundSet)
(define-fun IsRedheaded ((BOUND_VARIABLE_519 BoundSet)) Bool true)
(define-fun IsInterestedInWater ((BOUND_VARIABLE_519 BoundSet)) Bool true)
(define-fun IsInterestedInPeople ((BOUND_VARIABLE_519 BoundSet)) Bool true)
(define-fun IsInDistance ((BOUND_VARIABLE_519 BoundSet)) Bool true)
(define-fun IsAtWater ((BOUND_VARIABLE_519 BoundSet)) Bool true)
(define-fun IsSitting ((BOUND_VARIABLE_519 BoundSet)) Bool false)
(define-fun IsLookingThroughRailing ((BOUND_VARIABLE_519 BoundSet)) Bool true)
(define-fun IsPeoplePlayingOnBeach ((BOUND_VARIABLE_519 BoundSet)) Bool true)
)
